wfn=*.xyz
ring=?

%command
#!/bin/bash
cat > template.gjf <<'EOF'
#p b3lyp/6-31+G* NMR

template file

  0  1
[geometry]


EOF
end

[aromatic]
%process
    gen2dinp ring ${ring}
end

%command
#!/bin/bash
rm -f template.gjf
read X Y Z < <(awk '/The unit normal vector is /{print $6,$7,$8; exit}' "aromatic_${input}.out")
vector="${X},${Y},${Z}"
echo [aromatic] > nics2.bwc
echo "%process" >> nics2.bwc
echo "    nics2d ring ${ring} vector ${vector}" >> nics2.bwc
echo "wait" >> nics2.bwc
cat << EOF >> nics2.bwc

# Bundled by bane dysta
# ConfDir: D:\program\Banewfn\conf

#>>> BANEWFN_INLINE_CONF_BEGIN aromatic
## bundled module: aromatic
# # 主逻辑
# [main]
# 25
# 
# [nics2d]
# 14
# 1
# \${grid:- }          # default: 100,100
# 8
# ${ring}
# \${distance:-1}      # distance between plotting plane and geometric center in Angstrom
# \${range:-6}        # length of the plotting plane in Angstroms
# 2
# \${outfile:-NICS_2D.log}
# 0                   # decide plotting plane by vector
# \${vector}
# 4                   # Enable showing atom labels and reference point
# 2                   # GREEN
# 8                   # Enable showing bonds
# 14                  # Brown
# -8                  # Change length unit of the graph to Angstrom
# 1                   # Set lower&upper limit of color scale
# -50,50
# -2                  # Set label intervals in X, Y and color scale axes
# 2,2,10
# 19                  # Set color transition
# 8                   # Blue-White-Red
# 17                  # Set distance threshold for showing atom labels
# 5
# n                   # new option in some version of multiwfn
# 2                   # Enable showing contour lines
# 3                   # Change contour line setting
# 8                   # Generate contour value by arithmetic progression
# -20,15,6
# y
# 1
# 0                   # Save the graph file
# 
# # 退出
# [quit]
# 0
# q
#<<< BANEWFN_INLINE_CONF_END aromatic
EOF

end

# Bundled by bane dysta
# ConfDir: D:\MyProgram\banewfn\conf

#>>> BANEWFN_INLINE_CONF_BEGIN aromatic
## bundled module: aromatic
# # 主逻辑
# [main]
# 25
# 
# [gen2dinp]
# 14
# 1
# ${grid:- }          # default: 100,100
# 8
# ${ring}
# ${distance:-1}      # distance between plotting plane and geometric center in Angstrom
# ${range:-6}         # length of the plotting plane in Angstroms
# 1
# ${template:-template.gjf}
# 
# [genicssinp]
# 3
# ${grid:-2}          # default: Medium quality grid
# n
# ${template:-template.gjf}
# 
# [nics2d]
# 14
# 1
# ${grid:- }          # default: 100,100
# 8
# ${ring}
# ${distance:-1}      # distance between plotting plane and geometric center in Angstrom
# ${range:-6}        # length of the plotting plane in Angstroms
# 2
# ${outfile:-NICS_2D.log}
# 0                   # decide plotting plane by vector
# ${vector}
# 4                   # Enable showing atom labels and reference point
# 2                   # GREEN
# 8                   # Enable showing bonds
# 14                  # Brown
# -8                  # Change length unit of the graph to Angstrom
# 1                   # Set lower&upper limit of color scale
# -50,50
# -2                  # Set label intervals in X, Y and color scale axes
# 2,2,10
# 19                  # Set color transition
# 8                   # Blue-White-Red
# 17                  # Set distance threshold for showing atom labels
# 5
# n                   # new option in some version of multiwfn
# 2                   # Enable showing contour lines
# 3                   # Change contour line setting
# 8                   # Generate contour value by arithmetic progression
# -20,15,6
# y
# 1
# 0                   # Save the graph file
# 
# # 退出
# [quit]
# 0
# q
#<<< BANEWFN_INLINE_CONF_END aromatic

